
Gurobi 10.0.1 (win64) logging started Sun Oct  8 10:18:29 2023

Set parameter LogFile to value "./results//log/FMS_11_makespan_heurTrue.log"
Gurobi Optimizer version 10.0.1 build v10.0.1rc0 (win64)

CPU model: AMD Ryzen 7 3700X 8-Core Processor, instruction set [SSE2|AVX|AVX2]
Thread count: 8 physical cores, 16 logical processors, using up to 16 threads

Optimize a model with 268 rows, 292 columns and 1064 nonzeros
Model fingerprint: 0x49139ef5
Variable types: 0 continuous, 292 integer (258 binary)
Coefficient statistics:
  Matrix range     [1e+00, 1e+07]
  Objective range  [1e+00, 1e+00]
  Bounds range     [1e+00, 1e+00]
  RHS range        [1e+00, 3e+07]

User MIP start did not produce a new incumbent solution
User MIP start violates constraint initial_start_time_job0_stage0_machine2_constraint by 420.000000000

Presolve removed 46 rows and 174 columns
Presolve time: 0.00s
Presolved: 222 rows, 118 columns, 965 nonzeros
Variable types: 0 continuous, 118 integer (85 binary)
Found heuristic solution: objective 9071.0000000
Found heuristic solution: objective 7244.0000000

Root relaxation: objective 4.008000e+03, 57 iterations, 0.00 seconds (0.00 work units)

    Nodes    |    Current Node    |     Objective Bounds      |     Work
 Expl Unexpl |  Obj  Depth IntInf | Incumbent    BestBd   Gap | It/Node Time

     0     0 4008.00000    0   23 7244.00000 4008.00000  44.7%     -    0s
Another try with MIP start
H    0     0                    6188.0000000 4008.00000  35.2%     -    0s
     0     0 4046.00000    0   29 6188.00000 4046.00000  34.6%     -    0s
     0     0 4051.00000    0   35 6188.00000 4051.00000  34.5%     -    0s
     0     0 4051.00000    0   37 6188.00000 4051.00000  34.5%     -    0s
     0     0 4057.00091    0   34 6188.00000 4057.00091  34.4%     -    0s
     0     0 4061.00000    0   30 6188.00000 4061.00000  34.4%     -    0s
     0     0 4061.00000    0   30 6188.00000 4061.00000  34.4%     -    0s
     0     0 4067.00000    0   33 6188.00000 4067.00000  34.3%     -    0s
     0     0 4071.00000    0   29 6188.00000 4071.00000  34.2%     -    0s
     0     0 4071.00000    0   30 6188.00000 4071.00000  34.2%     -    0s
     0     0 4080.99594    0   32 6188.00000 4080.99594  34.0%     -    0s
     0     0 4081.00000    0   29 6188.00000 4081.00000  34.0%     -    0s
     0     2 4081.00000    0   28 6188.00000 4081.00000  34.0%     -    0s
H  206   172                    6083.0000000 4081.00000  32.9%   4.2    0s
H  263   228                    5858.0000000 4081.00000  30.3%   4.0    0s
H  341   248                    5824.0000000 4081.00000  29.9%   3.8    0s
H  395   303                    5790.0000000 4081.00000  29.5%   3.7    0s
H 2087   845                    5714.0000000 4170.14476  27.0%   3.5    1s
H 2287   845                    5708.0000000 4179.00000  26.8%   3.4    1s
*16411  5159              58    5687.0000000 4518.00000  20.6%   2.4    2s
H16868  5150                    5648.0000000 4528.26103  19.8%   2.4    3s
H17823  5067                    5633.0000000 4543.10843  19.3%   2.5    3s
*25100  5964              53    5620.0000000 4661.12256  17.1%   2.9    3s
*27631  6231              53    5602.0000000 4727.49934  15.6%   2.9    3s
 41763  7026 5141.65588   40   16 5602.00000 4880.00000  12.9%   3.3    5s

Cutting planes:
  Learned: 5
  MIR: 5
  Flow cover: 3

Explored 97931 nodes (364652 simplex iterations) in 6.72 seconds (0.95 work units)
Thread count was 16 (of 16 available processors)

Solution count 10: 5602 5620 5633 ... 5858

Optimal solution found (tolerance 1.00e-04)
Best objective 5.602000000000e+03, best bound 5.602000000000e+03, gap 0.0000%
Warning: constraint name "precedence between 0,0 to 0,1 if x_[0,0,0,1,3]=0, i.e. 0,1 before 0,0" has a space
Warning: constraint name "precedence between 0,0 to 0,1 if x_[0,0,0,1,3]=0, i.e. 0,1 before 0,0" has a space
Warning: default constraint names used to write mps file
